! =============================================================================
! Counterfactual Headquarters — Baseline IDF
! =============================================================================
! Building:  12,000 sf (1,115 m²) single-story municipal office
! Location:  Washington Dulles, VA — Zone 4A
! Zones:     OFFICE (8,000 sf / 743 m²)  +  LOBBY (4,000 sf / 372 m²)
! HVAC:      Packaged RTU per zone — gas furnace, DX cooling
! Baseline:  T8 fluorescents (1.5 W/sf office, 1.0 W/sf lobby)
!            Original RTU controls — fixed setpoints, no scheduling optimization
! ECMs:      ECM-1: LED retrofit (office wing only)
!            ECM-2: DDC controls — optimized setpoints and scheduling
! Weather:   USA_VA_Sterling-Washington.Dulles.Intl.AP.724030_TMY3.epw
! EnergyPlus Version: 25.1
! Author: Counterfactual Designs / Steve Kromer PE CMVP
! =============================================================================

  Version,25.2;

! =============================================================================
! SIMULATION CONTROL
! =============================================================================

  SimulationControl,
    YES,                     !- Do Zone Sizing Calculation
    YES,                     !- Do System Sizing Calculation
    YES,                     !- Do Plant Sizing Calculation
    YES,                     !- Run Simulation for Sizing Periods
    YES,                     !- Run Simulation for Weather File Run Periods
    No,                      !- Do HVAC Sizing Simulation for Sizing Periods
    1;                       !- Maximum Number of HVAC Sizing Simulation Passes

  GlobalGeometryRules,
    UpperLeftCorner,         !- Starting Vertex Position
    CounterClockWise,        !- Vertex Entry Direction
    Relative,                !- Coordinate System
    Relative,                !- Daylighting Reference Point Coordinate System
    Relative;                !- Rectangular Surface Coordinate System

  Building,
    Counterfactual Headquarters,  !- Name
    0.0,                     !- North Axis {deg} — long axis E-W
    City,                    !- Terrain
    0.0400,                  !- Loads Convergence Tolerance Value {W}
    0.2000,                  !- Temperature Convergence Tolerance Value {deltaC}
    FullInteriorAndExterior, !- Solar Distribution
    25,                      !- Maximum Number of Warmup Days
    6;                       !- Minimum Number of Warmup Days

  RunPeriod,
    Annual,                  !- Name
    1,                       !- Begin Month
    1,                       !- Begin Day of Month
    ,                        !- Begin Year
    12,                      !- End Month
    31,                      !- End Day of Month
    ,                        !- End Year
    Sunday,                  !- Day of Week for Start Day
    No,                      !- Use Weather File Holidays and Special Days
    No,                      !- Use Weather File Daylight Saving Period
    Yes,                     !- Apply Weekend Holiday Rule
    Yes,                     !- Use Weather File Rain Indicators
    Yes;                     !- Use Weather File Snow Indicators

  RunPeriodControl:DaylightSavingTime,
    2nd Sunday in March,     !- StartDate
    2nd Sunday in November;  !- EndDate

! =============================================================================
! LOCATION AND DESIGN DAYS — Washington Dulles, VA (Zone 4A)
! =============================================================================

  Site:Location,
    Washington Dulles Intl Airport VA,  !- Name
    38.98,                   !- Latitude {N+ S-}
    -77.47,                  !- Longitude {W- E+}
    -5.00,                   !- Time Zone {GMT+/-}
    82.00;                   !- Elevation {m}

  ! Winter design day — 99.6% heating
  SizingPeriod:DesignDay,
    Dulles Ann Htg 99.6% Condns DB,  !- Name
    1,                       !- Month
    21,                      !- Day of Month
    WinterDesignDay,         !- Day Type
    -11.8,                   !- Maximum Dry-Bulb Temperature {C}
    0.0,                     !- Daily Dry-Bulb Temperature Range {C}
    DefaultMultipliers,      !- Dry-Bulb Temperature Range Modifier Type
    ,                        !- Dry-Bulb Temperature Range Modifier Schedule Name
    Wetbulb,                 !- Humidity Condition Type
    -11.8,                   !- Wetbulb at Maximum Dry-Bulb {C}
    ,                        !- Humidity Indicating Day Schedule Name
    ,                        !- Humidity Ratio at Maximum Dry-Bulb
    ,                        !- Enthalpy at Maximum Dry-Bulb
    ,                        !- Daily Wet-Bulb Temperature Range
    100344.,                 !- Barometric Pressure {Pa}
    2.7,                     !- Wind Speed {m/s}
    310,                     !- Wind Direction {deg}
    No,                      !- Rain
    No,                      !- Snow on ground
    No,                      !- Daylight Savings Time Indicator
    ASHRAEClearSky,          !- Solar Model Indicator
    ,                        !- Beam Solar Day Schedule Name
    ,                        !- Diffuse Solar Day Schedule Name
    ,                        !- taub
    ,                        !- taud
    0.00;                    !- Clearness

  ! Summer design day — 1% cooling
  SizingPeriod:DesignDay,
    Dulles Ann Clg 1% Condns DB=>MWB,  !- Name
    7,                       !- Month
    21,                      !- Day of Month
    SummerDesignDay,         !- Day Type
    32.7,                    !- Maximum Dry-Bulb Temperature {C}
    11.4,                    !- Daily Dry-Bulb Temperature Range {C}
    DefaultMultipliers,      !- Dry-Bulb Temperature Range Modifier Type
    ,                        !- Dry-Bulb Temperature Range Modifier Schedule Name
    Wetbulb,                 !- Humidity Condition Type
    23.5,                    !- Wetbulb at Maximum Dry-Bulb {C}
    ,                        !- Humidity Indicating Day Schedule Name
    ,                        !- Humidity Ratio at Maximum Dry-Bulb
    ,                        !- Enthalpy at Maximum Dry-Bulb
    ,                        !- Daily Wet-Bulb Temperature Range
    100344.,                 !- Barometric Pressure {Pa}
    4.0,                     !- Wind Speed {m/s}
    290,                     !- Wind Direction {deg}
    No,                      !- Rain
    No,                      !- Snow on ground
    No,                      !- Daylight Savings Time Indicator
    ASHRAETau,               !- Solar Model Indicator
    ,                        !- Beam Solar Day Schedule Name
    ,                        !- Diffuse Solar Day Schedule Name
    0.544,                   !- taub (beam)
    1.787;                   !- taud (diffuse)

! =============================================================================
! SCHEDULE TYPE LIMITS
! =============================================================================

  ScheduleTypeLimits,
    Fraction,                !- Name
    0.0,                     !- Lower Limit Value
    1.0,                     !- Upper Limit Value
    CONTINUOUS;              !- Numeric Type

  ScheduleTypeLimits,
    On/Off,                  !- Name
    0,                       !- Lower Limit Value
    1,                       !- Upper Limit Value
    DISCRETE;                !- Numeric Type

  ScheduleTypeLimits,
    Temperature,             !- Name
    -60,                     !- Lower Limit Value
    200,                     !- Upper Limit Value
    CONTINUOUS,              !- Numeric Type
    Temperature;             !- Unit Type

  ScheduleTypeLimits,
    AnyNumber;               !- Name

! =============================================================================
! SCHEDULES
! Baseline: no DDC optimization — simple fixed setpoints, lights always on
! during business hours. ECM-2 will modify these.
! =============================================================================

  ! Always on (1.0)
  Schedule:Compact,
    Always On,               !- Name
    Fraction,                !- Schedule Type Limits Name
    Through: 12/31,
    For: AllDays,
    Until: 24:00, 1.0;

  ! Office occupancy: Mon-Fri 7am-6pm, minimal after hours
  Schedule:Compact,
    OFFICE_Occ_Sch,          !- Name
    Fraction,                !- Schedule Type Limits Name
    Through: 12/31,
    For: Weekdays,
    Until: 07:00, 0.00,
    Until: 08:00, 0.25,
    Until: 17:00, 1.00,
    Until: 18:00, 0.50,
    Until: 24:00, 0.05,
    For: Saturday,
    Until: 08:00, 0.00,
    Until: 13:00, 0.20,
    Until: 24:00, 0.00,
    For: Sunday,
    Until: 24:00, 0.00;

  ! Lobby occupancy: extended hours, weekends moderate
  Schedule:Compact,
    LOBBY_Occ_Sch,           !- Name
    Fraction,                !- Schedule Type Limits Name
    Through: 12/31,
    For: Weekdays,
    Until: 07:00, 0.05,
    Until: 18:00, 0.75,
    Until: 21:00, 0.40,
    Until: 24:00, 0.05,
    For: Weekend,
    Until: 09:00, 0.05,
    Until: 18:00, 0.35,
    Until: 24:00, 0.05;

  ! Office lighting: BASELINE — T8 fluorescents, simple on/off
  ! (ECM-1 will reduce Watts/Area, not change this schedule)
  Schedule:Compact,
    OFFICE_Lighting_Sch,     !- Name
    Fraction,                !- Schedule Type Limits Name
    Through: 12/31,
    For: Weekdays,
    Until: 07:00, 0.05,      !- Emergency/security lighting
    Until: 18:00, 1.00,      !- Full operation — no daylight control in baseline
    Until: 24:00, 0.05,
    For: Saturday,
    Until: 08:00, 0.05,
    Until: 14:00, 0.50,
    Until: 24:00, 0.05,
    For: Sunday,
    Until: 24:00, 0.05;

  ! Lobby lighting
  Schedule:Compact,
    LOBBY_Lighting_Sch,      !- Name
    Fraction,                !- Schedule Type Limits Name
    Through: 12/31,
    For: AllDays,
    Until: 06:00, 0.20,
    Until: 07:00, 0.60,
    Until: 21:00, 1.00,
    Until: 22:00, 0.60,
    Until: 24:00, 0.20;

  ! Office equipment (plug loads)
  Schedule:Compact,
    OFFICE_Equip_Sch,        !- Name
    Fraction,                !- Schedule Type Limits Name
    Through: 12/31,
    For: Weekdays,
    Until: 07:00, 0.10,
    Until: 08:00, 0.50,
    Until: 17:00, 1.00,
    Until: 18:00, 0.50,
    Until: 24:00, 0.10,
    For: Weekend,
    Until: 24:00, 0.10;

  ! Lobby equipment
  Schedule:Compact,
    LOBBY_Equip_Sch,         !- Name
    Fraction,                !- Schedule Type Limits Name
    Through: 12/31,
    For: Weekdays,
    Until: 07:00, 0.10,
    Until: 21:00, 0.60,
    Until: 24:00, 0.10,
    For: Weekend,
    Until: 24:00, 0.20;

  ! HVAC availability — baseline: always available (no scheduling optimization)
  ! ECM-2 will add optimal start/stop here
  Schedule:Compact,
    HVAC_Avail_Sch,          !- Name
    Fraction,                !- Schedule Type Limits Name
    Through: 12/31,
    For: AllDays,
    Until: 24:00, 1.0;

  ! Heating setpoints — BASELINE: fixed 70°F (21.1°C) all hours
  ! No setback in baseline (ECM-2 will add night setback)
  Schedule:Compact,
    OFFICE_HtgSetpt_Sch,     !- Name
    Temperature,             !- Schedule Type Limits Name
    Through: 12/31,
    For: AllDays,
    Until: 24:00, 21.1;      !- 70°F constant — no setback in baseline

  Schedule:Compact,
    LOBBY_HtgSetpt_Sch,      !- Name
    Temperature,             !- Schedule Type Limits Name
    Through: 12/31,
    For: AllDays,
    Until: 24:00, 20.0;      !- 68°F lobby

  ! Cooling setpoints — BASELINE: fixed 75°F (23.9°C) all hours
  ! No setup in baseline (ECM-2 will add night setup)
  Schedule:Compact,
    OFFICE_ClgSetpt_Sch,     !- Name
    Temperature,             !- Schedule Type Limits Name
    Through: 12/31,
    For: AllDays,
    Until: 24:00, 23.9;      !- 75°F constant — no setup in baseline

  Schedule:Compact,
    LOBBY_ClgSetpt_Sch,      !- Name
    Temperature,             !- Schedule Type Limits Name
    Through: 12/31,
    For: AllDays,
    Until: 24:00, 25.0;      !- 77°F lobby (slightly warmer acceptable)

  ! Infiltration schedule — reduced when HVAC on (pressurization effect)
  Schedule:Compact,
    Infil_Sch,               !- Name
    Fraction,                !- Schedule Type Limits Name
    Through: 12/31,
    For: Weekdays,
    Until: 07:00, 1.00,
    Until: 18:00, 0.25,      !- Building pressurized when occupied
    Until: 24:00, 1.00,
    For: Weekend,
    Until: 24:00, 1.00;

! =============================================================================
! MATERIALS AND CONSTRUCTIONS
! Zone 4A compliance: ASHRAE 90.1-2004
! =============================================================================

  ! Roof layers: metal deck + polyisocyanurate insulation + membrane
  Material,
    Roof Deck,               !- Name
    Smooth,                  !- Roughness
    0.0015,                  !- Thickness {m} — metal deck, thin
    45.0,                    !- Conductivity {W/m-K}
    7800,                    !- Density {kg/m3}
    418,                     !- Specific Heat {J/kg-K}
    0.9,                     !- Thermal Absorptance
    0.7,                     !- Solar Absorptance
    0.7;                     !- Visible Absorptance

  Material,
    Roof Insulation R25,     !- Name
    Rough,                   !- Roughness
    0.090,                   !- Thickness {m} — polyiso, gives ~R-25 US
    0.022,                   !- Conductivity {W/m-K}
    32,                      !- Density {kg/m3}
    1000,                    !- Specific Heat {J/kg-K}
    0.9, 0.7, 0.7;

  ! Exterior wall: CMU + continuous insulation (typical municipal)
  Material,
    CMU Wall,                !- Name
    MediumRough,             !- Roughness
    0.200,                   !- Thickness {m} — 8" CMU
    0.51,                    !- Conductivity {W/m-K}
    800,                     !- Density {kg/m3}
    920,                     !- Specific Heat {J/kg-K}
    0.9, 0.7, 0.7;

  Material,
    Wall Insulation R7.5ci,  !- Name
    Rough,                   !- Roughness
    0.033,                   !- Thickness {m} — polyiso ci, ~R-7.5 US
    0.022,                   !- Conductivity {W/m-K}
    32,                      !- Density {kg/m3}
    1000,                    !- Specific Heat {J/kg-K}
    0.9, 0.7, 0.7;

  ! Interior wall (between zones) — lightweight partition
  Material,
    Interior Partition,      !- Name
    Smooth,                  !- Roughness
    0.013,                   !- Thickness {m} — drywall
    0.16,                    !- Conductivity {W/m-K}
    800,                     !- Density {kg/m3}
    840,                     !- Specific Heat {J/kg-K}
    0.9, 0.6, 0.6;

  ! Slab on grade
  Material,
    Concrete Slab,           !- Name
    MediumRough,             !- Roughness
    0.150,                   !- Thickness {m} — 6" slab
    1.73,                    !- Conductivity {W/m-K}
    2200,                    !- Density {kg/m3}
    900,                     !- Specific Heat {J/kg-K}
    0.9, 0.7, 0.7;

  ! Constructions
  Construction,
    Roof Construction,       !- Name
    Roof Deck,               !- Layer 1 (outside)
    Roof Insulation R25;     !- Layer 2 (inside)

  Construction,
    Exterior Wall,           !- Name
    CMU Wall,                !- Layer 1 (outside)
    Wall Insulation R7.5ci;  !- Layer 2 (inside)

  Construction,
    Interior Wall,           !- Name
    Interior Partition;      !- Single layer

  Construction,
    Floor Slab,              !- Name
    Concrete Slab;           !- Single layer

  ! Window construction: double pane low-e (U~2.0 W/m2K, SHGC~0.40)
  WindowMaterial:SimpleGlazingSystem,
    Double Pane Low-E,       !- Name
    2.047,                   !- U-Factor {W/m2-K}
    0.40,                    !- Solar Heat Gain Coefficient
    0.60;                    !- Visible Transmittance

  Construction,
    Window Construction,     !- Name
    Double Pane Low-E;       !- Layer

! =============================================================================
! GROUND TEMPERATURES (for slab-on-grade)
! Zone 4A approximate values for Dulles VA
! =============================================================================

  Site:GroundTemperature:BuildingSurface,
    12.8,                    !- January {C}
    11.1,                    !- February
    11.7,                    !- March
    13.3,                    !- April
    15.6,                    !- May
    18.3,                    !- June
    20.6,                    !- July
    21.7,                    !- August
    21.1,                    !- September
    19.4,                    !- October
    16.1,                    !- November
    13.9;                    !- December

! =============================================================================
! ZONES
! =============================================================================

  Zone,
    OFFICE,                  !- Name
    0.0,                     !- Direction of Relative North {deg}
    0.0, 0.0, 0.0,           !- Origin X, Y, Z {m}
    1,                       !- Type
    1,                       !- Multiplier
    3.048,                   !- Ceiling Height {m} — 10 ft
    2265.45;                 !- Volume {m3} = 743.22 m2 × 3.048 m

  Zone,
    LOBBY,                   !- Name
    0.0,                     !- Direction of Relative North {deg}
    0.0, 0.0, 0.0,           !- Origin X, Y, Z {m}
    1,                       !- Type
    1,                       !- Multiplier
    3.048,                   !- Ceiling Height {m}
    1133.61;                 !- Volume {m3} = 371.61 m2 × 3.048 m

! =============================================================================
! GEOMETRY
! Building footprint (metric):
!   OFFICE: X 0→24.384 m, Y 0→30.48 m  (80 ft × 100 ft = 8,000 sf)
!   LOBBY:  X 24.384→36.576 m, Y 0→30.48 m  (40 ft × 100 ft = 4,000 sf)
!   Height: 3.048 m (10 ft)
!   Orientation: South face at Y=0, North at Y=30.48
!                West at X=0, East at X=36.576
!                Interior wall at X=24.384
! All vertices listed CCW when viewed from outside the zone.
! =============================================================================

  ! --- OFFICE ZONE SURFACES ---

  BuildingSurface:Detailed,
    OFFICE:Floor,            !- Name
    Floor,                   !- Surface Type
    Floor Slab,              !- Construction Name
    OFFICE,                  !- Zone Name
    ,                        !- Space Name
    Ground,                  !- Outside Boundary Condition
    ,                        !- Outside Boundary Condition Object
    NoSun,                   !- Sun Exposure
    NoWind,                  !- Wind Exposure
    0.0,                     !- View Factor to Ground
    4,                       !- Number of Vertices
    0.0, 30.48, 0.0,
    0.0, 0.0, 0.0,
    24.384, 0.0, 0.0,
    24.384, 30.48, 0.0;

  BuildingSurface:Detailed,
    OFFICE:Roof,             !- Name
    Roof,                    !- Surface Type
    Roof Construction,       !- Construction Name
    OFFICE,                  !- Zone Name
    ,                        !- Space Name
    Outdoors,                !- Outside Boundary Condition
    ,                        !- Outside Boundary Condition Object
    SunExposed,              !- Sun Exposure
    WindExposed,             !- Wind Exposure
    0.0,                     !- View Factor to Ground
    4,                       !- Number of Vertices
    0.0, 30.48, 3.048,
    24.384, 30.48, 3.048,
    24.384, 0.0, 3.048,
    0.0, 0.0, 3.048;

  BuildingSurface:Detailed,
    OFFICE:Wall:South,       !- Name
    Wall,                    !- Surface Type
    Exterior Wall,           !- Construction Name
    OFFICE,                  !- Zone Name
    ,                        !- Space Name
    Outdoors,                !- Outside Boundary Condition
    ,                        !- Outside Boundary Condition Object
    SunExposed,              !- Sun Exposure
    WindExposed,             !- Wind Exposure
    ,                        !- View Factor to Ground
    4,                       !- Number of Vertices
    0.0, 0.0, 3.048,
    0.0, 0.0, 0.0,
    24.384, 0.0, 0.0,
    24.384, 0.0, 3.048;

  BuildingSurface:Detailed,
    OFFICE:Wall:North,       !- Name
    Wall,                    !- Surface Type
    Exterior Wall,           !- Construction Name
    OFFICE,                  !- Zone Name
    ,                        !- Space Name
    Outdoors,                !- Outside Boundary Condition
    ,                        !- Outside Boundary Condition Object
    SunExposed,              !- Sun Exposure
    WindExposed,             !- Wind Exposure
    ,                        !- View Factor to Ground
    4,                       !- Number of Vertices
    24.384, 30.48, 3.048,
    24.384, 30.48, 0.0,
    0.0, 30.48, 0.0,
    0.0, 30.48, 3.048;

  BuildingSurface:Detailed,
    OFFICE:Wall:West,        !- Name
    Wall,                    !- Surface Type
    Exterior Wall,           !- Construction Name
    OFFICE,                  !- Zone Name
    ,                        !- Space Name
    Outdoors,                !- Outside Boundary Condition
    ,                        !- Outside Boundary Condition Object
    SunExposed,              !- Sun Exposure
    WindExposed,             !- Wind Exposure
    ,                        !- View Factor to Ground
    4,                       !- Number of Vertices
    0.0, 30.48, 3.048,
    0.0, 30.48, 0.0,
    0.0, 0.0, 0.0,
    0.0, 0.0, 3.048;

  ! Interior wall — OFFICE east face, adjacent to LOBBY
  BuildingSurface:Detailed,
    OFFICE:Wall:East,        !- Name
    Wall,                    !- Surface Type
    Interior Wall,           !- Construction Name
    OFFICE,                  !- Zone Name
    ,                        !- Space Name
    Surface,                 !- Outside Boundary Condition
    LOBBY:Wall:West,         !- Outside Boundary Condition Object (matching surface)
    NoSun,                   !- Sun Exposure
    NoWind,                  !- Wind Exposure
    ,                        !- View Factor to Ground
    4,                       !- Number of Vertices
    24.384, 0.0, 3.048,
    24.384, 0.0, 0.0,
    24.384, 30.48, 0.0,
    24.384, 30.48, 3.048;

  ! --- OFFICE WINDOWS ---

  FenestrationSurface:Detailed,
    OFFICE:Win:South,        !- Name
    Window,                  !- Surface Type
    Window Construction,     !- Construction Name
    OFFICE:Wall:South,       !- Building Surface Name
    ,                        !- Outside Boundary Condition Object
    ,                        !- View Factor to Ground
    ,                        !- Frame and Divider Name
    1.0,                     !- Multiplier
    4,                       !- Number of Vertices
    6.000, 0.0, 2.100,
    6.000, 0.0, 0.900,
    18.384, 0.0, 0.900,
    18.384, 0.0, 2.100;

  FenestrationSurface:Detailed,
    OFFICE:Win:North,        !- Name
    Window,                  !- Surface Type
    Window Construction,     !- Construction Name
    OFFICE:Wall:North,       !- Building Surface Name
    ,                        !- Outside Boundary Condition Object
    ,                        !- View Factor to Ground
    ,                        !- Frame and Divider Name
    1.0,                     !- Multiplier
    4,
    20.000, 30.48, 2.100,
    20.000, 30.48, 0.900,
    4.384, 30.48, 0.900,
    4.384, 30.48, 2.100;

  FenestrationSurface:Detailed,
    OFFICE:Win:West,         !- Name
    Window,                  !- Surface Type
    Window Construction,     !- Construction Name
    OFFICE:Wall:West,        !- Building Surface Name
    ,                        !- Outside Boundary Condition Object
    ,                        !- View Factor to Ground
    ,                        !- Frame and Divider Name
    1.0,                     !- Multiplier
    4,
    0.0, 22.48, 2.100,
    0.0, 22.48, 0.900,
    0.0, 8.000, 0.900,
    0.0, 8.000, 2.100;

  ! --- LOBBY ZONE SURFACES ---

  BuildingSurface:Detailed,
    LOBBY:Floor,             !- Name
    Floor,                   !- Surface Type
    Floor Slab,              !- Construction Name
    LOBBY,                   !- Zone Name
    ,                        !- Space Name
    Ground,                  !- Outside Boundary Condition
    ,                        !- Outside Boundary Condition Object
    NoSun,                   !- Sun Exposure
    NoWind,                  !- Wind Exposure
    0.0,                     !- View Factor to Ground
    4,                       !- Number of Vertices
    24.384, 30.48, 0.0,
    24.384, 0.0, 0.0,
    36.576, 0.0, 0.0,
    36.576, 30.48, 0.0;

  BuildingSurface:Detailed,
    LOBBY:Roof,              !- Name
    Roof,                    !- Surface Type
    Roof Construction,       !- Construction Name
    LOBBY,                   !- Zone Name
    ,                        !- Space Name
    Outdoors,                !- Outside Boundary Condition
    ,                        !- Outside Boundary Condition Object
    SunExposed,              !- Sun Exposure
    WindExposed,             !- Wind Exposure
    0.0,                     !- View Factor to Ground
    4,                       !- Number of Vertices
    24.384, 30.48, 3.048,
    36.576, 30.48, 3.048,
    36.576, 0.0, 3.048,
    24.384, 0.0, 3.048;

  BuildingSurface:Detailed,
    LOBBY:Wall:South,        !- Name
    Wall,                    !- Surface Type
    Exterior Wall,           !- Construction Name
    LOBBY,                   !- Zone Name
    ,                        !- Space Name
    Outdoors,                !- Outside Boundary Condition
    ,                        !- Outside Boundary Condition Object
    SunExposed,              !- Sun Exposure
    WindExposed,             !- Wind Exposure
    ,                        !- View Factor to Ground
    4,                       !- Number of Vertices
    24.384, 0.0, 3.048,
    24.384, 0.0, 0.0,
    36.576, 0.0, 0.0,
    36.576, 0.0, 3.048;

  BuildingSurface:Detailed,
    LOBBY:Wall:North,        !- Name
    Wall,                    !- Surface Type
    Exterior Wall,           !- Construction Name
    LOBBY,                   !- Zone Name
    ,                        !- Space Name
    Outdoors,                !- Outside Boundary Condition
    ,                        !- Outside Boundary Condition Object
    SunExposed,              !- Sun Exposure
    WindExposed,             !- Wind Exposure
    ,                        !- View Factor to Ground
    4,                       !- Number of Vertices
    36.576, 30.48, 3.048,
    36.576, 30.48, 0.0,
    24.384, 30.48, 0.0,
    24.384, 30.48, 3.048;

  BuildingSurface:Detailed,
    LOBBY:Wall:East,         !- Name
    Wall,                    !- Surface Type
    Exterior Wall,           !- Construction Name
    LOBBY,                   !- Zone Name
    ,                        !- Space Name
    Outdoors,                !- Outside Boundary Condition
    ,                        !- Outside Boundary Condition Object
    SunExposed,              !- Sun Exposure
    WindExposed,             !- Wind Exposure
    ,                        !- View Factor to Ground
    4,                       !- Number of Vertices
    36.576, 0.0, 3.048,
    36.576, 0.0, 0.0,
    36.576, 30.48, 0.0,
    36.576, 30.48, 3.048;

  ! Interior wall — LOBBY west face, adjacent to OFFICE
  BuildingSurface:Detailed,
    LOBBY:Wall:West,         !- Name
    Wall,                    !- Surface Type
    Interior Wall,           !- Construction Name
    LOBBY,                   !- Zone Name
    ,                        !- Space Name
    Surface,                 !- Outside Boundary Condition
    OFFICE:Wall:East,        !- Outside Boundary Condition Object (matching surface)
    NoSun,                   !- Sun Exposure
    NoWind,                  !- Wind Exposure
    ,                        !- View Factor to Ground
    4,                       !- Number of Vertices
    24.384, 30.48, 3.048,
    24.384, 30.48, 0.0,
    24.384, 0.0, 0.0,
    24.384, 0.0, 3.048;

  ! --- LOBBY WINDOWS ---

  FenestrationSurface:Detailed,
    LOBBY:Win:East,          !- Name
    Window,                  !- Surface Type
    Window Construction,     !- Construction Name
    LOBBY:Wall:East,         !- Building Surface Name
    ,                        !- Outside Boundary Condition Object
    ,                        !- View Factor to Ground
    ,                        !- Frame and Divider Name
    1.0,                     !- Multiplier
    4,
    36.576, 10.74, 2.400,
    36.576, 10.74, 0.600,
    36.576, 19.74, 0.600,
    36.576, 19.74, 2.400;

  FenestrationSurface:Detailed,
    LOBBY:Win:South,         !- Name
    Window,                  !- Surface Type
    Window Construction,     !- Construction Name
    LOBBY:Wall:South,        !- Building Surface Name
    ,                        !- Outside Boundary Condition Object
    ,                        !- View Factor to Ground
    ,                        !- Frame and Divider Name
    1.0,                     !- Multiplier
    4,
    27.384, 0.0, 2.400,
    27.384, 0.0, 0.600,
    33.576, 0.0, 0.600,
    33.576, 0.0, 2.400;

! =============================================================================
! INTERNAL GAINS — People, Lights, Equipment
! =============================================================================

  ! --- PEOPLE ---

  People,
    OFFICE People,           !- Name
    OFFICE,                  !- Zone or ZoneList or Space or SpaceList Name
    OFFICE_Occ_Sch,          !- Number of People Schedule Name
    People/Area,             !- Number of People Calculation Method
    ,                        !- Number of People
    0.053763,                !- People per Zone Floor Area {person/m2} = 5/1000sf
    ,                        !- Zone Floor Area per Person
    0.3,                     !- Fraction Radiant
    ,                        !- Sensible Heat Fraction
    Activity Sch;            !- Activity Level Schedule Name

  Schedule:Compact,
    Activity Sch,            !- Name
    AnyNumber,               !- Schedule Type Limits Name
    Through: 12/31,
    For: AllDays,
    Until: 24:00, 120.0;    !- 120 W/person (office work)

  People,
    LOBBY People,            !- Name
    LOBBY,                   !- Zone Name
    LOBBY_Occ_Sch,           !- Number of People Schedule Name
    People/Area,             !- Number of People Calculation Method
    ,                        !- Number of People
    0.107527,                !- People per Zone Floor Area {person/m2} = 10/1000sf
    ,
    0.3,                     !- Fraction Radiant
    ,                        !- Sensible Heat Fraction
    Activity Sch;

  ! --- LIGHTS ---

  ! OFFICE: T8 FLUORESCENT BASELINE — 1.5 W/sf = 16.15 W/m²
  ! ECM-1 target: LED at 0.75 W/sf (50% reduction)
  ! NOTE: modify_lights tool targets this object for ECM-1 demo
  Lights,
    OFFICE Lights,           !- Name
    OFFICE,                  !- Zone or ZoneList or Space or SpaceList Name
    OFFICE_Lighting_Sch,     !- Schedule Name
    Watts/Area,              !- Design Level Calculation Method
    ,                        !- Lighting Level {W}
    8.07,                    !- Watts per Zone Floor Area {W/m2} — LED retrofit, 0.75 W/sf
    ,                        !- Watts per Person
    0.42,                    !- Return Air Fraction — fluorescent heat to return air
    0.09,                    !- Fraction Radiant — T8 fluorescent
    0.18,                    !- Fraction Visible
    1.00,                    !- Fraction Replaceable
    General,                 !- End-Use Subcategory
    No;                      !- Return Air Fraction Calculated from Plenum Temperature

  ! LOBBY: existing fixtures, not part of ECM-1 retrofit
  Lights,
    LOBBY Lights,            !- Name
    LOBBY,                   !- Zone Name
    LOBBY_Lighting_Sch,      !- Schedule Name
    Watts/Area,              !- Design Level Calculation Method
    ,
    10.76,                   !- Watts per Zone Floor Area {W/m2} — 1.0 W/sf, not retrofitted
    ,
    0.32,                    !- Return Air Fraction
    0.09,                    !- Fraction Radiant
    0.18,                    !- Fraction Visible
    1.00,                    !- Fraction Replaceable
    General,                 !- End-Use Subcategory
    No;

  ! --- ELECTRIC EQUIPMENT (plug loads) ---

  ElectricEquipment,
    OFFICE Equipment,        !- Name
    OFFICE,                  !- Zone Name
    OFFICE_Equip_Sch,        !- Schedule Name
    Watts/Area,              !- Design Level Calculation Method
    ,
    10.76,                   !- Watts per Zone Floor Area {W/m2} — 1.0 W/sf
    ,
    0.50,                    !- Fraction Latent
    0.00,                    !- Fraction Radiant (to zone air)
    0.00;                    !- Fraction Lost

  ElectricEquipment,
    LOBBY Equipment,         !- Name
    LOBBY,                   !- Zone Name
    LOBBY_Equip_Sch,         !- Schedule Name
    Watts/Area,
    ,
    5.38,                    !- Watts per Zone Floor Area {W/m2} — 0.5 W/sf
    ,
    0.50,
    0.00,
    0.00;

  ! --- INFILTRATION ---

  ZoneInfiltration:DesignFlowRate,
    OFFICE Infiltration,     !- Name
    OFFICE,                  !- Zone Name
    Infil_Sch,               !- Schedule Name
    Flow/ExteriorArea,       !- Design Flow Rate Calculation Method
    ,                        !- Design Flow Rate {m3/s}
    ,                        !- Flow per Zone Floor Area
    0.000305,                !- Flow per Exterior Surface Area {m3/s-m2} — 0.06 cfm/sf EWA
    ;                        !- Air Changes per Hour

  ZoneInfiltration:DesignFlowRate,
    LOBBY Infiltration,      !- Name
    LOBBY,                   !- Zone Name
    Infil_Sch,               !- Schedule Name
    Flow/ExteriorArea,
    ,,,
    0.000305;

! =============================================================================
! HVAC — HVACTemplate: Packaged RTU per zone
! Gas furnace + single-speed DX cooling
! Baseline: no economizer, fixed setpoints, constant fan
! ECM-2 will modify thermostat schedules for setback/setup
! =============================================================================

  ! --- OUTDOOR AIR DESIGN SPECIFICATIONS ---

  DesignSpecification:OutdoorAir,
    OFFICE OA Spec,          !- Name
    Sum,                     !- Outdoor Air Method
    0.00944,                 !- Outdoor Air Flow per Person {m3/s-person} = 15 cfm/person
    0.000305,                !- Outdoor Air Flow per Zone Floor Area {m3/s-m2} = 0.06 cfm/sf
    ,,,;

  DesignSpecification:OutdoorAir,
    LOBBY OA Spec,           !- Name
    Sum,
    0.00944,                 !- 15 cfm/person
    0.000305,                !- 0.06 cfm/sf
    ,,,;

  ! --- THERMOSTATS ---

  HVACTemplate:Thermostat,
    OFFICE Thermostat,       !- Name
    OFFICE_HtgSetpt_Sch,     !- Heating Setpoint Temperature Schedule Name
    ,                        !- Constant Heating Setpoint — use schedule instead
    OFFICE_ClgSetpt_Sch,     !- Cooling Setpoint Temperature Schedule Name
    ;                        !- Constant Cooling Setpoint

  HVACTemplate:Thermostat,
    LOBBY Thermostat,        !- Name
    LOBBY_HtgSetpt_Sch,
    ,
    LOBBY_ClgSetpt_Sch,
    ;

  ! --- ZONE UNITARY SYSTEMS (PSZ-AC per zone) ---
  ! Field order per EnergyPlus 25.1 IDD: Zone, System, Thermostat, MaxFlow,
  !   HtgFactor, ClgFactor, OA Method, OA/person, OA/area, OA/zone

  HVACTemplate:Zone:Unitary,
    OFFICE,                  !- Zone Name
    OFFICE RTU,              !- Template Unitary System Name
    OFFICE Thermostat,       !- Template Thermostat Name
    autosize,                !- Supply Air Maximum Flow Rate {m3/s}
    ,                        !- Zone Heating Sizing Factor
    ,                        !- Zone Cooling Sizing Factor
    Flow/Person,             !- Outdoor Air Method
    0.00944,                 !- Outdoor Air Flow Rate per Person {m3/s} (20 cfm)
    ,                        !- Outdoor Air Flow Rate per Zone Floor Area
    ;                        !- Outdoor Air Flow Rate per Zone

  HVACTemplate:Zone:Unitary,
    LOBBY,                   !- Zone Name
    LOBBY RTU,               !- Template Unitary System Name
    LOBBY Thermostat,        !- Template Thermostat Name
    autosize,                !- Supply Air Maximum Flow Rate {m3/s}
    ,                        !- Zone Heating Sizing Factor
    ,                        !- Zone Cooling Sizing Factor
    Flow/Person,             !- Outdoor Air Method
    0.00944,                 !- Outdoor Air Flow Rate per Person {m3/s} (20 cfm)
    ,                        !- Outdoor Air Flow Rate per Zone Floor Area
    ;                        !- Outdoor Air Flow Rate per Zone

  ! --- PACKAGED UNITARY SYSTEMS ---
  ! Field order per EnergyPlus 25.1 IDD:
  !   Name, Avail Sched, Control Zone, Fan Max Flow, Fan Op Mode Sched,
  !   Fan Eff, Fan dP, Fan Motor Eff, Fan Motor Frac,
  !   Clg Coil Type, Clg Avail Sched, Clg SAT, Clg Cap, Clg SHR, Clg COP,
  !   Htg Coil Type, Htg Avail Sched, Htg SAT, Htg Cap, Gas Eff, Gas Parasite,
  !   Max OA, Min OA, Min OA Sched, Economizer, Lockout, ...
  !   Supply Plenum, Return Plenum, Fan Placement, Night Cycle, ...

  HVACTemplate:System:Unitary,
    OFFICE RTU,              !- Name
    HVAC_Avail_Sch,          !- System Availability Schedule Name
    OFFICE,                  !- Control Zone or Thermostat Location Name
    autosize,                !- Supply Fan Maximum Flow Rate {m3/s}
    Always On,               !- Supply Fan Operating Mode Schedule Name
    0.70,                    !- Supply Fan Total Efficiency
    745.0,                   !- Supply Fan Delta Pressure {Pa}
    0.90,                    !- Supply Fan Motor Efficiency
    1.0,                     !- Supply Fan Motor in Air Stream Fraction
    SingleSpeedDX,           !- Cooling Coil Type
    ,                        !- Cooling Coil Availability Schedule Name
    12.8,                    !- Cooling Design Supply Air Temperature {C}
    autosize,                !- Cooling Coil Gross Rated Total Capacity {W}
    autosize,                !- Cooling Coil Gross Rated Sensible Heat Ratio
    3.50,                    !- Cooling Coil Gross Rated COP
    Gas,                     !- Heating Coil Type
    ,                        !- Heating Coil Availability Schedule Name
    50.0,                    !- Heating Design Supply Air Temperature {C}
    autosize,                !- Heating Coil Capacity {W}
    0.80,                    !- Gas Heating Coil Efficiency
    0,                       !- Gas Heating Coil Parasitic Electric Load {W}
    autosize,                !- Maximum Outdoor Air Flow Rate {m3/s}
    autosize,                !- Minimum Outdoor Air Flow Rate {m3/s}
    ,                        !- Minimum Outdoor Air Schedule Name
    NoEconomizer,            !- Economizer Type
    NoLockout,               !- Economizer Lockout
    ,                        !- Economizer Upper Temperature Limit {C}
    ,                        !- Economizer Lower Temperature Limit {C}
    ,                        !- Economizer Upper Enthalpy Limit {J/kg}
    ,                        !- Economizer Maximum Limit Dewpoint Temperature {C}
    ,                        !- Supply Plenum Name
    ,                        !- Return Plenum Name
    BlowThrough,             !- Supply Fan Placement
    StayOff,                 !- Night Cycle Control
    ,                        !- Night Cycle Control Zone Name
    None,                    !- Heat Recovery Type
    ,                        !- Sensible Heat Recovery Effectiveness
    ;                        !- Latent Heat Recovery Effectiveness

  HVACTemplate:System:Unitary,
    LOBBY RTU,               !- Name
    HVAC_Avail_Sch,          !- System Availability Schedule Name
    LOBBY,                   !- Control Zone or Thermostat Location Name
    autosize,                !- Supply Fan Maximum Flow Rate {m3/s}
    Always On,               !- Supply Fan Operating Mode Schedule Name
    0.70,                    !- Supply Fan Total Efficiency
    745.0,                   !- Supply Fan Delta Pressure {Pa}
    0.90,                    !- Supply Fan Motor Efficiency
    1.0,                     !- Supply Fan Motor in Air Stream Fraction
    SingleSpeedDX,           !- Cooling Coil Type
    ,                        !- Cooling Coil Availability Schedule Name
    12.8,                    !- Cooling Design Supply Air Temperature {C}
    autosize,                !- Cooling Coil Gross Rated Total Capacity {W}
    autosize,                !- Cooling Coil Gross Rated Sensible Heat Ratio
    3.50,                    !- Cooling Coil Gross Rated COP
    Gas,                     !- Heating Coil Type
    ,                        !- Heating Coil Availability Schedule Name
    50.0,                    !- Heating Design Supply Air Temperature {C}
    autosize,                !- Heating Coil Capacity {W}
    0.80,                    !- Gas Heating Coil Efficiency
    0,                       !- Gas Heating Coil Parasitic Electric Load {W}
    autosize,                !- Maximum Outdoor Air Flow Rate {m3/s}
    autosize,                !- Minimum Outdoor Air Flow Rate {m3/s}
    ,                        !- Minimum Outdoor Air Schedule Name
    NoEconomizer,            !- Economizer Type
    NoLockout,               !- Economizer Lockout
    ,                        !- Economizer Upper Temperature Limit {C}
    ,                        !- Economizer Lower Temperature Limit {C}
    ,                        !- Economizer Upper Enthalpy Limit {J/kg}
    ,                        !- Economizer Maximum Limit Dewpoint Temperature {C}
    ,                        !- Supply Plenum Name
    ,                        !- Return Plenum Name
    BlowThrough,             !- Supply Fan Placement
    StayOff,                 !- Night Cycle Control
    ,                        !- Night Cycle Control Zone Name
    None,                    !- Heat Recovery Type
    ,                        !- Sensible Heat Recovery Effectiveness
    ;                        !- Latent Heat Recovery Effectiveness

! =============================================================================
! OUTPUT VARIABLES AND METERS
! Monthly resolution for M&V analysis
! Annual/hourly also available for model diagnostics
! =============================================================================

  OutputControl:Table:Style,
    CommaAndHTML;            !- Column Separator

  Output:Table:SummaryReports,
    AllSummary;              !- Report Name 1

  ! Energy meters — monthly for M&V analysis
  Output:Meter,
    Electricity:Facility,    !- Key Name
    Monthly;                 !- Reporting Frequency

  Output:Meter,
    NaturalGas:Facility,     !- Key Name
    Monthly;

  Output:Meter,
    Cooling:Electricity,     !- Key Name
    Monthly;

  Output:Meter,
    Heating:NaturalGas,      !- Key Name
    Monthly;

  Output:Meter,
    InteriorLights:Electricity,  !- Key Name
    Monthly;

  Output:Meter,
    InteriorEquipment:Electricity,
    Monthly;

  Output:Meter,
    Fans:Electricity,
    Monthly;

  ! Zone-level variables — monthly for baseline characterization
  Output:Variable,
    OFFICE,                  !- Key Value
    Zone Mean Air Temperature,
    Monthly;

  Output:Variable,
    LOBBY,
    Zone Mean Air Temperature,
    Monthly;

  Output:Variable,
    *,                       !- All zones
    Site Outdoor Air Drybulb Temperature,
    Monthly;

  Output:Variable,
    *,
    Zone Mechanical Ventilation Current Density Volume Flow Rate,
    Monthly;

  ! Hourly outputs for diagnostic / scatter plot generation
  Output:Meter,
    Electricity:Facility,
    Hourly;

  Output:Meter,
    NaturalGas:Facility,
    Hourly;

  Output:Variable,
    *,
    Site Outdoor Air Drybulb Temperature,
    Hourly;

  ! Simulation diagnostics
  Output:Diagnostics,
    DisplayUnusedSchedules;

  Output:SQLite,
    SimpleAndTabular;        !- Output Type

! =============================================================================
! END OF CFHQ_BASELINE.IDF
! =============================================================================
! Next steps:
!   1. Run with Dulles TMY3 weather to generate baseline annual results
!   2. Verify 5P electric shape, 3P gas shape from monthly outputs
!   3. Create cfhq_ecm1.idf: modify OFFICE Lights from 16.15 → 8.07 W/m2
!   4. Create cfhq_ecm2.idf: modify setpoint schedules (add setback/setup)
!   5. Export monthly kWh and therms → public/data/ CSVs for web app
! =============================================================================
